p sp 12 46
a 1 2 1
a 1 3 1
a 1 4 1
a 1 5 1
a 1 8 1
a 1 9 1
a 1 10 1
a 2 1 1
a 2 3 1
a 2 6 1
a 2 7 1
a 2 10 1
a 3 1 1
a 3 2 1
a 3 4 1
a 3 6 1
a 3 7 1
a 4 1 1
a 4 3 1
a 4 5 1
a 4 11 1
a 4 12 1
a 5 1 1
a 5 4 1
a 5 8 1
a 5 11 1
a 5 12 1
a 6 2 1
a 6 3 1
a 6 7 1
a 7 2 1
a 7 3 1
a 7 6 1
a 8 1 1
a 8 5 1
a 8 9 1
a 9 1 1
a 9 8 1
a 9 10 1
a 10 1 1
a 10 2 1
a 10 9 1
a 11 4 1
a 11 5 1
a 12 4 1
a 12 5 1
